output_file = "7-1-B-100-1.20-73.csv";

n_days = 100;
n_shelf_types = 2;
n_crops = 1;

num_shelves = [
    5, 2
];


crop_shelf_type_compatible = [
    [1, 1]
];

crop_growth_days = [15];

n_configurations = 2;

crop_growth_day_config = [
    [1, 1, 1, 2, 2, 2, 2, 2, 2, 2, 2, 2, 2, 2, 2]
];

capacity = [
    [12, 12],
[12, 12]
];

demand = [
    [0, 0, 0, 0, 0, 0, 0, 0, 0, 0, 0, 0, 0, 0, 0, 0, 4, 0, 13, 0, 2, 0, 0, 0, 4, 0, 0, 0, 3, 3, 0, 0, 0, 0, 0, 0, 0, 0, 6, 0, 0, 0, 0, 0, 0, 0, 0, 10, 2, 0, 2, 4, 7, 0, 0, 0, 0, 0, 3, 0, 6, 7, 1, 0, 0, 7, 0, 0, 0, 3, 0, 0, 0, 0, 0, 4, 2, 0, 0, 2, 0, 0, 8, 1, 3, 0, 4, 0, 0, 10, 1, 0, 3, 4, 6, 0, 0, 0, 0, 0]
];
